instances/knapsack/discrete/knapsack_130_17.lp
\ Model knapsack_130_17
\ LP format - for model browsing. Use MPS format to capture full model detail.
\ Signature: 0x8c644a484ac146d4
Minimize
  - 18 x[0] - 42 x[1] - 24 x[2] - 60 x[3] - 49 x[4] - 89 x[5] - 81 x[6]
   - 91 x[7] - 70 x[8] - 90 x[9] - 87 x[10] - 63 x[11] - 15 x[12]
   - 50 x[13] - 59 x[14] - 60 x[15] - 34 x[16] - 14 x[17] - 74 x[18]
   - 9 x[19] - 13 x[20] - 39 x[21] - 92 x[22] - 16 x[23] - 97 x[24]
   - 42 x[25] - 88 x[26] - 35 x[27] - 70 x[28] - 88 x[29] - 89 x[30]
   - 16 x[31] - 88 x[32] - 19 x[33] - 3 x[34] - 9 x[35] - 65 x[36]
   - 91 x[37] - 22 x[38] - 23 x[39] - 88 x[40] - 69 x[41] - 37 x[42]
   - 67 x[43] - 50 x[44] - 63 x[45] - 60 x[46] - 76 x[47] - 100 x[48]
   - 73 x[49] - 7 x[50] - 6 x[51] - 19 x[52] - 33 x[53] - 48 x[54]
   - 42 x[55] - 10 x[56] - 24 x[57] - 32 x[58] - 95 x[59] - 48 x[60]
   - 6 x[61] - 61 x[62] - 77 x[63] - 34 x[64] - 41 x[65] - 25 x[66]
   - 73 x[67] - 88 x[68] - 21 x[69] - 41 x[70] - 3 x[71] - 5 x[72]
   - 5 x[73] - 54 x[74] - 50 x[75] - 82 x[76] - 97 x[77] - 80 x[78]
   - 43 x[79] - 35 x[80] - 82 x[81] - 33 x[82] - 78 x[83] - 61 x[84]
   - 88 x[85] - 50 x[86] - 71 x[87] - 64 x[88] - 70 x[89] - 62 x[90]
   - 57 x[91] - 33 x[92] - 16 x[93] - 12 x[94] - 98 x[95] - 25 x[96]
   - 64 x[97] - 44 x[98] - 52 x[99] - 28 x[100] - 25 x[101] - 18 x[102]
   - 73 x[103] - 59 x[104] - 71 x[105] - 90 x[106] - 100 x[107] - 50 x[108]
   - 8 x[109] - 89 x[110] - 46 x[111] - 81 x[112] - 83 x[113] - 2 x[114]
   - 53 x[115] - 47 x[116] - 69 x[117] - 90 x[118] - 51 x[119] - 89 x[120]
   - 78 x[121] - 42 x[122] - 23 x[123] - 11 x[124] - 20 x[125] - 88 x[126]
   - 30 x[127] - 7 x[128] - 40 x[129]
Subject To
 primal_upper: 89 x[0] + 70 x[1] + 8 x[2] + 29 x[3] + 34 x[4] + 95 x[5]
   + 43 x[6] + 85 x[7] + 79 x[8] + 4 x[9] + 89 x[10] + 81 x[11] + 50 x[12]
   + 98 x[13] + 30 x[14] + 26 x[15] + 19 x[16] + 26 x[17] + 43 x[18]
   + 12 x[19] + 35 x[20] + 81 x[21] + 86 x[22] + 52 x[23] + 30 x[24]
   + 90 x[25] + 48 x[26] + 89 x[27] + 11 x[28] + 77 x[29] + 99 x[30]
   + 49 x[31] + 85 x[32] + 63 x[33] + 54 x[34] + 79 x[35] + 22 x[36]
   + 2 x[37] + 90 x[38] + 36 x[39] + 33 x[40] + 19 x[41] + 48 x[42]
   + 79 x[43] + 57 x[44] + 96 x[45] + 95 x[46] + 35 x[47] + 61 x[48]
   + 66 x[49] + 68 x[50] + 86 x[51] + 91 x[52] + 70 x[53] + 10 x[54]
   + 33 x[55] + 83 x[56] + 24 x[57] + 42 x[58] + 24 x[59] + 22 x[60]
   + 48 x[61] + 9 x[62] + 56 x[63] + 9 x[64] + 82 x[65] + 90 x[66]
   + 96 x[67] + 98 x[68] + 71 x[69] + 67 x[70] + 43 x[71] + 44 x[72]
   + 85 x[73] + 81 x[74] + 14 x[75] + 44 x[76] + 97 x[77] + 30 x[78]
   + 80 x[79] + 63 x[80] + 55 x[81] + 64 x[82] + 7 x[83] + 55 x[84]
   + 71 x[85] + 29 x[86] + 14 x[87] + 96 x[88] + 57 x[89] + 90 x[90]
   + 90 x[91] + 94 x[92] + 69 x[93] + 94 x[94] + 79 x[95] + 79 x[96]
   + 82 x[97] + 6 x[98] + 66 x[99] + 23 x[100] + 78 x[101] + 88 x[102]
   + 18 x[103] + 39 x[104] + 36 x[105] + 49 x[106] + 36 x[107] + 32 x[108]
   + 55 x[109] + 84 x[110] + 37 x[111] + 11 x[112] + 35 x[113] + 79 x[114]
   + 72 x[115] + 85 x[116] + 39 x[117] + 23 x[118] + 74 x[119] + 97 x[120]
   + 30 x[121] + x[122] + 16 x[123] + 11 x[124] + 92 x[125] + 69 x[126]
   + 73 x[127] + 88 x[128] + 65 x[129] + 8.9 r[0] + 7 r[1] + 0.8 r[2]
   + 2.9 r[3] + 3.4 r[4] + 9.5 r[5] + 4.3 r[6] + 8.5 r[7] + 7.9 r[8]
   + 0.4 r[9] + 8.9 r[10] + 8.1 r[11] + 5 r[12] + 9.8 r[13] + 3 r[14]
   + 2.6 r[15] + 1.9 r[16] + 2.6 r[17] + 4.3 r[18] + 1.2 r[19] + 3.5 r[20]
   + 8.1 r[21] + 8.6 r[22] + 5.2 r[23] + 3 r[24] + 9 r[25] + 4.8 r[26]
   + 8.9 r[27] + 1.1 r[28] + 7.7 r[29] + 9.9 r[30] + 4.9 r[31] + 8.5 r[32]
   + 6.3 r[33] + 5.4 r[34] + 7.9 r[35] + 2.2 r[36] + 0.2 r[37] + 9 r[38]
   + 3.6 r[39] + 3.3 r[40] + 1.9 r[41] + 4.8 r[42] + 7.9 r[43] + 5.7 r[44]
   + 9.6 r[45] + 9.5 r[46] + 3.5 r[47] + 6.1 r[48] + 6.6 r[49] + 6.8 r[50]
   + 8.6 r[51] + 9.1 r[52] + 7 r[53] + r[54] + 3.3 r[55] + 8.3 r[56]
   + 2.4 r[57] + 4.2 r[58] + 2.4 r[59] + 2.2 r[60] + 4.8 r[61] + 0.9 r[62]
   + 5.6 r[63] + 0.9 r[64] + 8.2 r[65] + 9 r[66] + 9.6 r[67] + 9.8 r[68]
   + 7.1 r[69] + 6.7 r[70] + 4.3 r[71] + 4.4 r[72] + 8.5 r[73] + 8.1 r[74]
   + 1.4 r[75] + 4.4 r[76] + 9.7 r[77] + 3 r[78] + 8 r[79] + 6.3 r[80]
   + 5.5 r[81] + 6.4 r[82] + 0.7 r[83] + 5.5 r[84] + 7.1 r[85] + 2.9 r[86]
   + 1.4 r[87] + 9.6 r[88] + 5.7 r[89] + 9 r[90] + 9 r[91] + 9.4 r[92]
   + 6.9 r[93] + 9.4 r[94] + 7.9 r[95] + 7.9 r[96] + 8.2 r[97] + 0.6 r[98]
   + 6.6 r[99] + 2.3 r[100] + 7.8 r[101] + 8.8 r[102] + 1.8 r[103]
   + 3.9 r[104] + 3.6 r[105] + 4.9 r[106] + 3.6 r[107] + 3.2 r[108]
   + 5.5 r[109] + 8.4 r[110] + 3.7 r[111] + 1.1 r[112] + 3.5 r[113]
   + 7.9 r[114] + 7.2 r[115] + 8.5 r[116] + 3.9 r[117] + 2.3 r[118]
   + 7.4 r[119] + 9.7 r[120] + 3 r[121] + 0.1 r[122] + 1.6 r[123]
   + 1.1 r[124] + 9.2 r[125] + 6.9 r[126] + 7.3 r[127] + 8.8 r[128]
   + 6.5 r[129] <= 692
 primal_lower: 0.0741461542085483 x[0] + 3.185157374345851 x[1]
   + 0.4142297448873449 x[2] + 3.564107722833874 x[3]
   + 3.003574565094703 x[4] + 1.725062349276481 x[5]
   + 0.0881192385275063 x[6] + 1.670285394658528 x[7]
   + 0.9901383167490742 x[8] + 4.009524647265231 x[9]
   + 3.642552338289865 x[10] + 3.3944190960887 x[11]
   + 3.533826326263376 x[12] + 2.146841373228768 x[13]
   + 0.1685156996691267 x[14] + 2.120681990024546 x[15]
   + 0.0832067078663923 x[16] + 3.942390816171411 x[17]
   + 4.231385992215133 x[18] + 0.3187150563658814 x[19]
   + 3.451957708734926 x[20] + 2.314873778632554 x[21]
   + 0.5568879379663818 x[22] + 1.203205310047293 x[23]
   + 4.172526516054073 x[24] + 2.51632176678055 x[25]
   + 2.326817305248189 x[26] + 1.867322369262026 x[27]
   + 2.05219366555448 x[28] + 0.5092314697321775 x[29]
   + 2.767830805289915 x[30] + 1.936302351577591 x[31]
   + 3.471540661282395 x[32] + 2.275134943569521 x[33]
   + 1.401007923206127 x[34] + 1.793673838691103 x[35]
   + 3.461392883785948 x[36] + 0.1590795699191072 x[37]
   + 0.8195296887197809 x[38] + 1.127967651464215 x[39]
   + 4.178495811442051 x[40] + 1.780432749012317 x[41]
   + 1.706032965503986 x[42] + 3.053323203857436 x[43]
   + 2.111247768401025 x[44] + 0.0140622128842538 x[45]
   + 4.136255697216566 x[46] + 2.683995306517752 x[47]
   + 1.614940487841974 x[48] + 2.220937466172953 x[49]
   + 3.696932839785951 x[50] + 2.275707053403156 x[51]
   + 0.9556989353610492 x[52] + 1.944452654548303 x[53]
   + 0.9617493862699725 x[54] + 4.147827898957316 x[55]
   + 2.450458493309201 x[56] + 0.7299445065524708 x[57]
   + 3.099025320300205 x[58] + 3.376429416412091 x[59]
   + 2.998274229696661 x[60] + 0.6077677606187794 x[61]
   + 1.20088241174884 x[62] + 4.272605282581338 x[63]
   + 3.018958150050901 x[64] + 1.46532277106506 x[65]
   + 4.492539740280599 x[66] + 2.013769498022508 x[67]
   + 4.29784406375831 x[68] + 3.47446822266053 x[69]
   + 2.556156546692789 x[70] + 0.3129189312320175 x[71]
   + 0.091609193150701 x[72] + 0.5354005619860495 x[73]
   + 3.426685325351655 x[74] + 3.474306050925187 x[75]
   + 3.800900542010959 x[76] + 1.122524347546763 x[77]
   + 1.949660367915536 x[78] + 3.658846086843463 x[79]
   + 1.584604211928061 x[80] + 2.116150759915746 x[81]
   + 3.247153571100353 x[82] + 1.801919559129731 x[83]
   + 1.0750366709165 x[84] + 0.9505688540719597 x[85]
   + 3.472374621567807 x[86] + 4.185612019545488 x[87]
   + 0.6790359645737859 x[88] + 0.8230283185547588 x[89]
   + 0.8706260679660658 x[90] + 1.980213178736462 x[91]
   + 1.30319099311279 x[92] + 0.9446422710679412 x[93]
   + 0.0388138955334213 x[94] + 1.028775291204878 x[95]
   + 1.685049183071587 x[96] + 0.6581685819374673 x[97]
   + 3.515469230076515 x[98] + 1.003576404235288 x[99]
   + 3.382065015542865 x[100] + 3.790046259517239 x[101]
   + 3.953697136604806 x[102] + 0.5303805181821724 x[103]
   + 4.337860807350445 x[104] + 1.948445621288655 x[105]
   + 1.234730541021057 x[106] + 0.2731531755583506 x[107]
   + 3.928581047631842 x[108] + 2.796336262088189 x[109]
   + 0.8294338045044378 x[110] + 1.539638840738472 x[111]
   + 0.9537835866045785 x[112] + 4.09589727505103 x[113]
   + 3.313530872185856 x[114] + 3.194167931618575 x[115]
   + 2.599269954531826 x[116] + 3.448434402474015 x[117]
   + 3.728201962123435 x[118] + 1.289822317878772 x[119]
   + 0.2839666396043796 x[120] + 0.0471452973380073 x[121]
   + 4.21361762422791 x[122] + 3.999016975780594 x[123]
   + 3.315163565987936 x[124] + 4.458831370586242 x[125]
   + 2.917719016795645 x[126] + 4.09048434769953 x[127]
   + 0.9266154097541855 x[128] + 1.394395912283422 x[129] + 4 u[0]
   + 52 u[1] + 26 u[2] + 91 u[3] + 4 u[4] + 42 u[5] + 77 u[6] + 68 u[7]
   + 65 u[8] + 58 u[9] + 28 u[10] + 31 u[11] + 8 u[12] + 60 u[13]
   + 29 u[14] + 65 u[15] + 89 u[16] + 20 u[17] + 17 u[18] + 66 u[19]
   + 25 u[20] + 16 u[21] + 16 u[22] + 39 u[23] + u[24] + 72 u[25]
   + 30 u[26] + 84 u[27] + 22 u[28] + 43 u[29] + 30 u[30] + 80 u[31]
   + 20 u[32] + 21 u[33] + 100 u[34] + 93 u[35] + 4 u[36] + 5 u[37]
   + 44 u[38] + 63 u[39] + 51 u[40] + 22 u[41] + 38 u[42] + 26 u[43]
   + 71 u[44] + 95 u[45] + 66 u[46] + 50 u[47] + 31 u[48] + 100 u[49]
   + 55 u[50] + 48 u[51] + 73 u[52] + 12 u[53] + 57 u[54] + 76 u[55]
   + 5 u[56] + 31 u[57] + 60 u[58] + 34 u[59] + 49 u[60] + 59 u[61]
   + 84 u[62] + 43 u[63] + 12 u[64] + 40 u[65] + 21 u[66] + 67 u[67]
   + 48 u[68] + 94 u[69] + 74 u[70] + 62 u[71] + 82 u[72] + 99 u[73]
   + 12 u[74] + 49 u[75] + 99 u[76] + 31 u[77] + 5 u[78] + 43 u[79]
   + 66 u[80] + 26 u[81] + 83 u[82] + 38 u[83] + 78 u[84] + 70 u[85]
   + 48 u[86] + 36 u[87] + 18 u[88] + 11 u[89] + 61 u[90] + 29 u[91]
   + 21 u[92] + 60 u[93] + 64 u[94] + 53 u[95] + 37 u[96] + 25 u[97]
   + 52 u[98] + 100 u[99] + 17 u[100] + 24 u[101] + 22 u[102] + 48 u[103]
   + 61 u[104] + 46 u[105] + 51 u[106] + 3 u[107] + 79 u[108] + 77 u[109]
   + 43 u[110] + 39 u[111] + 93 u[112] + 45 u[113] + 93 u[114] + 15 u[115]
   + 43 u[116] + 41 u[117] + 37 u[118] + 37 u[119] + 4 u[120] + 81 u[121]
   + 72 u[122] + 99 u[123] + 57 u[124] + 11 u[125] + 72 u[126] + 96 u[127]
   + 23 u[128] + 71 u[129] <= 87186
 mccormick1[0]: - u[0] + r[0] <= 0
 mccormick1[1]: - u[1] + r[1] <= 0
 mccormick1[2]: - u[2] + r[2] <= 0
 mccormick1[3]: - u[3] + r[3] <= 0
 mccormick1[4]: - u[4] + r[4] <= 0
 mccormick1[5]: - u[5] + r[5] <= 0
 mccormick1[6]: - u[6] + r[6] <= 0
 mccormick1[7]: - u[7] + r[7] <= 0
 mccormick1[8]: - u[8] + r[8] <= 0
 mccormick1[9]: - u[9] + r[9] <= 0
 mccormick1[10]: - u[10] + r[10] <= 0
 mccormick1[11]: - u[11] + r[11] <= 0
 mccormick1[12]: - u[12] + r[12] <= 0
 mccormick1[13]: - u[13] + r[13] <= 0
 mccormick1[14]: - u[14] + r[14] <= 0
 mccormick1[15]: - u[15] + r[15] <= 0
 mccormick1[16]: - u[16] + r[16] <= 0
 mccormick1[17]: - u[17] + r[17] <= 0
 mccormick1[18]: - u[18] + r[18] <= 0
 mccormick1[19]: - u[19] + r[19] <= 0
 mccormick1[20]: - u[20] + r[20] <= 0
 mccormick1[21]: - u[21] + r[21] <= 0
 mccormick1[22]: - u[22] + r[22] <= 0
 mccormick1[23]: - u[23] + r[23] <= 0
 mccormick1[24]: - u[24] + r[24] <= 0
 mccormick1[25]: - u[25] + r[25] <= 0
 mccormick1[26]: - u[26] + r[26] <= 0
 mccormick1[27]: - u[27] + r[27] <= 0
 mccormick1[28]: - u[28] + r[28] <= 0
 mccormick1[29]: - u[29] + r[29] <= 0
 mccormick1[30]: - u[30] + r[30] <= 0
 mccormick1[31]: - u[31] + r[31] <= 0
 mccormick1[32]: - u[32] + r[32] <= 0
 mccormick1[33]: - u[33] + r[33] <= 0
 mccormick1[34]: - u[34] + r[34] <= 0
 mccormick1[35]: - u[35] + r[35] <= 0
 mccormick1[36]: - u[36] + r[36] <= 0
 mccormick1[37]: - u[37] + r[37] <= 0
 mccormick1[38]: - u[38] + r[38] <= 0
 mccormick1[39]: - u[39] + r[39] <= 0
 mccormick1[40]: - u[40] + r[40] <= 0
 mccormick1[41]: - u[41] + r[41] <= 0
 mccormick1[42]: - u[42] + r[42] <= 0
 mccormick1[43]: - u[43] + r[43] <= 0
 mccormick1[44]: - u[44] + r[44] <= 0
 mccormick1[45]: - u[45] + r[45] <= 0
 mccormick1[46]: - u[46] + r[46] <= 0
 mccormick1[47]: - u[47] + r[47] <= 0
 mccormick1[48]: - u[48] + r[48] <= 0
 mccormick1[49]: - u[49] + r[49] <= 0
 mccormick1[50]: - u[50] + r[50] <= 0
 mccormick1[51]: - u[51] + r[51] <= 0
 mccormick1[52]: - u[52] + r[52] <= 0
 mccormick1[53]: - u[53] + r[53] <= 0
 mccormick1[54]: - u[54] + r[54] <= 0
 mccormick1[55]: - u[55] + r[55] <= 0
 mccormick1[56]: - u[56] + r[56] <= 0
 mccormick1[57]: - u[57] + r[57] <= 0
 mccormick1[58]: - u[58] + r[58] <= 0
 mccormick1[59]: - u[59] + r[59] <= 0
 mccormick1[60]: - u[60] + r[60] <= 0
 mccormick1[61]: - u[61] + r[61] <= 0
 mccormick1[62]: - u[62] + r[62] <= 0
 mccormick1[63]: - u[63] + r[63] <= 0
 mccormick1[64]: - u[64] + r[64] <= 0
 mccormick1[65]: - u[65] + r[65] <= 0
 mccormick1[66]: - u[66] + r[66] <= 0
 mccormick1[67]: - u[67] + r[67] <= 0
 mccormick1[68]: - u[68] + r[68] <= 0
 mccormick1[69]: - u[69] + r[69] <= 0
 mccormick1[70]: - u[70] + r[70] <= 0
 mccormick1[71]: - u[71] + r[71] <= 0
 mccormick1[72]: - u[72] + r[72] <= 0
 mccormick1[73]: - u[73] + r[73] <= 0
 mccormick1[74]: - u[74] + r[74] <= 0
 mccormick1[75]: - u[75] + r[75] <= 0
 mccormick1[76]: - u[76] + r[76] <= 0
 mccormick1[77]: - u[77] + r[77] <= 0
 mccormick1[78]: - u[78] + r[78] <= 0
 mccormick1[79]: - u[79] + r[79] <= 0
 mccormick1[80]: - u[80] + r[80] <= 0
 mccormick1[81]: - u[81] + r[81] <= 0
 mccormick1[82]: - u[82] + r[82] <= 0
 mccormick1[83]: - u[83] + r[83] <= 0
 mccormick1[84]: - u[84] + r[84] <= 0
 mccormick1[85]: - u[85] + r[85] <= 0
 mccormick1[86]: - u[86] + r[86] <= 0
 mccormick1[87]: - u[87] + r[87] <= 0
 mccormick1[88]: - u[88] + r[88] <= 0
 mccormick1[89]: - u[89] + r[89] <= 0
 mccormick1[90]: - u[90] + r[90] <= 0
 mccormick1[91]: - u[91] + r[91] <= 0
 mccormick1[92]: - u[92] + r[92] <= 0
 mccormick1[93]: - u[93] + r[93] <= 0
 mccormick1[94]: - u[94] + r[94] <= 0
 mccormick1[95]: - u[95] + r[95] <= 0
 mccormick1[96]: - u[96] + r[96] <= 0
 mccormick1[97]: - u[97] + r[97] <= 0
 mccormick1[98]: - u[98] + r[98] <= 0
 mccormick1[99]: - u[99] + r[99] <= 0
 mccormick1[100]: - u[100] + r[100] <= 0
 mccormick1[101]: - u[101] + r[101] <= 0
 mccormick1[102]: - u[102] + r[102] <= 0
 mccormick1[103]: - u[103] + r[103] <= 0
 mccormick1[104]: - u[104] + r[104] <= 0
 mccormick1[105]: - u[105] + r[105] <= 0
 mccormick1[106]: - u[106] + r[106] <= 0
 mccormick1[107]: - u[107] + r[107] <= 0
 mccormick1[108]: - u[108] + r[108] <= 0
 mccormick1[109]: - u[109] + r[109] <= 0
 mccormick1[110]: - u[110] + r[110] <= 0
 mccormick1[111]: - u[111] + r[111] <= 0
 mccormick1[112]: - u[112] + r[112] <= 0
 mccormick1[113]: - u[113] + r[113] <= 0
 mccormick1[114]: - u[114] + r[114] <= 0
 mccormick1[115]: - u[115] + r[115] <= 0
 mccormick1[116]: - u[116] + r[116] <= 0
 mccormick1[117]: - u[117] + r[117] <= 0
 mccormick1[118]: - u[118] + r[118] <= 0
 mccormick1[119]: - u[119] + r[119] <= 0
 mccormick1[120]: - u[120] + r[120] <= 0
 mccormick1[121]: - u[121] + r[121] <= 0
 mccormick1[122]: - u[122] + r[122] <= 0
 mccormick1[123]: - u[123] + r[123] <= 0
 mccormick1[124]: - u[124] + r[124] <= 0
 mccormick1[125]: - u[125] + r[125] <= 0
 mccormick1[126]: - u[126] + r[126] <= 0
 mccormick1[127]: - u[127] + r[127] <= 0
 mccormick1[128]: - u[128] + r[128] <= 0
 mccormick1[129]: - u[129] + r[129] <= 0
 mccormick2[0]: - x[0] + r[0] <= 0
 mccormick2[1]: - x[1] + r[1] <= 0
 mccormick2[2]: - x[2] + r[2] <= 0
 mccormick2[3]: - x[3] + r[3] <= 0
 mccormick2[4]: - x[4] + r[4] <= 0
 mccormick2[5]: - x[5] + r[5] <= 0
 mccormick2[6]: - x[6] + r[6] <= 0
 mccormick2[7]: - x[7] + r[7] <= 0
 mccormick2[8]: - x[8] + r[8] <= 0
 mccormick2[9]: - x[9] + r[9] <= 0
 mccormick2[10]: - x[10] + r[10] <= 0
 mccormick2[11]: - x[11] + r[11] <= 0
 mccormick2[12]: - x[12] + r[12] <= 0
 mccormick2[13]: - x[13] + r[13] <= 0
 mccormick2[14]: - x[14] + r[14] <= 0
 mccormick2[15]: - x[15] + r[15] <= 0
 mccormick2[16]: - x[16] + r[16] <= 0
 mccormick2[17]: - x[17] + r[17] <= 0
 mccormick2[18]: - x[18] + r[18] <= 0
 mccormick2[19]: - x[19] + r[19] <= 0
 mccormick2[20]: - x[20] + r[20] <= 0
 mccormick2[21]: - x[21] + r[21] <= 0
 mccormick2[22]: - x[22] + r[22] <= 0
 mccormick2[23]: - x[23] + r[23] <= 0
 mccormick2[24]: - x[24] + r[24] <= 0
 mccormick2[25]: - x[25] + r[25] <= 0
 mccormick2[26]: - x[26] + r[26] <= 0
 mccormick2[27]: - x[27] + r[27] <= 0
 mccormick2[28]: - x[28] + r[28] <= 0
 mccormick2[29]: - x[29] + r[29] <= 0
 mccormick2[30]: - x[30] + r[30] <= 0
 mccormick2[31]: - x[31] + r[31] <= 0
 mccormick2[32]: - x[32] + r[32] <= 0
 mccormick2[33]: - x[33] + r[33] <= 0
 mccormick2[34]: - x[34] + r[34] <= 0
 mccormick2[35]: - x[35] + r[35] <= 0
 mccormick2[36]: - x[36] + r[36] <= 0
 mccormick2[37]: - x[37] + r[37] <= 0
 mccormick2[38]: - x[38] + r[38] <= 0
 mccormick2[39]: - x[39] + r[39] <= 0
 mccormick2[40]: - x[40] + r[40] <= 0
 mccormick2[41]: - x[41] + r[41] <= 0
 mccormick2[42]: - x[42] + r[42] <= 0
 mccormick2[43]: - x[43] + r[43] <= 0
 mccormick2[44]: - x[44] + r[44] <= 0
 mccormick2[45]: - x[45] + r[45] <= 0
 mccormick2[46]: - x[46] + r[46] <= 0
 mccormick2[47]: - x[47] + r[47] <= 0
 mccormick2[48]: - x[48] + r[48] <= 0
 mccormick2[49]: - x[49] + r[49] <= 0
 mccormick2[50]: - x[50] + r[50] <= 0
 mccormick2[51]: - x[51] + r[51] <= 0
 mccormick2[52]: - x[52] + r[52] <= 0
 mccormick2[53]: - x[53] + r[53] <= 0
 mccormick2[54]: - x[54] + r[54] <= 0
 mccormick2[55]: - x[55] + r[55] <= 0
 mccormick2[56]: - x[56] + r[56] <= 0
 mccormick2[57]: - x[57] + r[57] <= 0
 mccormick2[58]: - x[58] + r[58] <= 0
 mccormick2[59]: - x[59] + r[59] <= 0
 mccormick2[60]: - x[60] + r[60] <= 0
 mccormick2[61]: - x[61] + r[61] <= 0
 mccormick2[62]: - x[62] + r[62] <= 0
 mccormick2[63]: - x[63] + r[63] <= 0
 mccormick2[64]: - x[64] + r[64] <= 0
 mccormick2[65]: - x[65] + r[65] <= 0
 mccormick2[66]: - x[66] + r[66] <= 0
 mccormick2[67]: - x[67] + r[67] <= 0
 mccormick2[68]: - x[68] + r[68] <= 0
 mccormick2[69]: - x[69] + r[69] <= 0
 mccormick2[70]: - x[70] + r[70] <= 0
 mccormick2[71]: - x[71] + r[71] <= 0
 mccormick2[72]: - x[72] + r[72] <= 0
 mccormick2[73]: - x[73] + r[73] <= 0
 mccormick2[74]: - x[74] + r[74] <= 0
 mccormick2[75]: - x[75] + r[75] <= 0
 mccormick2[76]: - x[76] + r[76] <= 0
 mccormick2[77]: - x[77] + r[77] <= 0
 mccormick2[78]: - x[78] + r[78] <= 0
 mccormick2[79]: - x[79] + r[79] <= 0
 mccormick2[80]: - x[80] + r[80] <= 0
 mccormick2[81]: - x[81] + r[81] <= 0
 mccormick2[82]: - x[82] + r[82] <= 0
 mccormick2[83]: - x[83] + r[83] <= 0
 mccormick2[84]: - x[84] + r[84] <= 0
 mccormick2[85]: - x[85] + r[85] <= 0
 mccormick2[86]: - x[86] + r[86] <= 0
 mccormick2[87]: - x[87] + r[87] <= 0
 mccormick2[88]: - x[88] + r[88] <= 0
 mccormick2[89]: - x[89] + r[89] <= 0
 mccormick2[90]: - x[90] + r[90] <= 0
 mccormick2[91]: - x[91] + r[91] <= 0
 mccormick2[92]: - x[92] + r[92] <= 0
 mccormick2[93]: - x[93] + r[93] <= 0
 mccormick2[94]: - x[94] + r[94] <= 0
 mccormick2[95]: - x[95] + r[95] <= 0
 mccormick2[96]: - x[96] + r[96] <= 0
 mccormick2[97]: - x[97] + r[97] <= 0
 mccormick2[98]: - x[98] + r[98] <= 0
 mccormick2[99]: - x[99] + r[99] <= 0
 mccormick2[100]: - x[100] + r[100] <= 0
 mccormick2[101]: - x[101] + r[101] <= 0
 mccormick2[102]: - x[102] + r[102] <= 0
 mccormick2[103]: - x[103] + r[103] <= 0
 mccormick2[104]: - x[104] + r[104] <= 0
 mccormick2[105]: - x[105] + r[105] <= 0
 mccormick2[106]: - x[106] + r[106] <= 0
 mccormick2[107]: - x[107] + r[107] <= 0
 mccormick2[108]: - x[108] + r[108] <= 0
 mccormick2[109]: - x[109] + r[109] <= 0
 mccormick2[110]: - x[110] + r[110] <= 0
 mccormick2[111]: - x[111] + r[111] <= 0
 mccormick2[112]: - x[112] + r[112] <= 0
 mccormick2[113]: - x[113] + r[113] <= 0
 mccormick2[114]: - x[114] + r[114] <= 0
 mccormick2[115]: - x[115] + r[115] <= 0
 mccormick2[116]: - x[116] + r[116] <= 0
 mccormick2[117]: - x[117] + r[117] <= 0
 mccormick2[118]: - x[118] + r[118] <= 0
 mccormick2[119]: - x[119] + r[119] <= 0
 mccormick2[120]: - x[120] + r[120] <= 0
 mccormick2[121]: - x[121] + r[121] <= 0
 mccormick2[122]: - x[122] + r[122] <= 0
 mccormick2[123]: - x[123] + r[123] <= 0
 mccormick2[124]: - x[124] + r[124] <= 0
 mccormick2[125]: - x[125] + r[125] <= 0
 mccormick2[126]: - x[126] + r[126] <= 0
 mccormick2[127]: - x[127] + r[127] <= 0
 mccormick2[128]: - x[128] + r[128] <= 0
 mccormick2[129]: - x[129] + r[129] <= 0
 mccormick3[0]: x[0] + u[0] - r[0] <= 1
 mccormick3[1]: x[1] + u[1] - r[1] <= 1
 mccormick3[2]: x[2] + u[2] - r[2] <= 1
 mccormick3[3]: x[3] + u[3] - r[3] <= 1
 mccormick3[4]: x[4] + u[4] - r[4] <= 1
 mccormick3[5]: x[5] + u[5] - r[5] <= 1
 mccormick3[6]: x[6] + u[6] - r[6] <= 1
 mccormick3[7]: x[7] + u[7] - r[7] <= 1
 mccormick3[8]: x[8] + u[8] - r[8] <= 1
 mccormick3[9]: x[9] + u[9] - r[9] <= 1
 mccormick3[10]: x[10] + u[10] - r[10] <= 1
 mccormick3[11]: x[11] + u[11] - r[11] <= 1
 mccormick3[12]: x[12] + u[12] - r[12] <= 1
 mccormick3[13]: x[13] + u[13] - r[13] <= 1
 mccormick3[14]: x[14] + u[14] - r[14] <= 1
 mccormick3[15]: x[15] + u[15] - r[15] <= 1
 mccormick3[16]: x[16] + u[16] - r[16] <= 1
 mccormick3[17]: x[17] + u[17] - r[17] <= 1
 mccormick3[18]: x[18] + u[18] - r[18] <= 1
 mccormick3[19]: x[19] + u[19] - r[19] <= 1
 mccormick3[20]: x[20] + u[20] - r[20] <= 1
 mccormick3[21]: x[21] + u[21] - r[21] <= 1
 mccormick3[22]: x[22] + u[22] - r[22] <= 1
 mccormick3[23]: x[23] + u[23] - r[23] <= 1
 mccormick3[24]: x[24] + u[24] - r[24] <= 1
 mccormick3[25]: x[25] + u[25] - r[25] <= 1
 mccormick3[26]: x[26] + u[26] - r[26] <= 1
 mccormick3[27]: x[27] + u[27] - r[27] <= 1
 mccormick3[28]: x[28] + u[28] - r[28] <= 1
 mccormick3[29]: x[29] + u[29] - r[29] <= 1
 mccormick3[30]: x[30] + u[30] - r[30] <= 1
 mccormick3[31]: x[31] + u[31] - r[31] <= 1
 mccormick3[32]: x[32] + u[32] - r[32] <= 1
 mccormick3[33]: x[33] + u[33] - r[33] <= 1
 mccormick3[34]: x[34] + u[34] - r[34] <= 1
 mccormick3[35]: x[35] + u[35] - r[35] <= 1
 mccormick3[36]: x[36] + u[36] - r[36] <= 1
 mccormick3[37]: x[37] + u[37] - r[37] <= 1
 mccormick3[38]: x[38] + u[38] - r[38] <= 1
 mccormick3[39]: x[39] + u[39] - r[39] <= 1
 mccormick3[40]: x[40] + u[40] - r[40] <= 1
 mccormick3[41]: x[41] + u[41] - r[41] <= 1
 mccormick3[42]: x[42] + u[42] - r[42] <= 1
 mccormick3[43]: x[43] + u[43] - r[43] <= 1
 mccormick3[44]: x[44] + u[44] - r[44] <= 1
 mccormick3[45]: x[45] + u[45] - r[45] <= 1
 mccormick3[46]: x[46] + u[46] - r[46] <= 1
 mccormick3[47]: x[47] + u[47] - r[47] <= 1
 mccormick3[48]: x[48] + u[48] - r[48] <= 1
 mccormick3[49]: x[49] + u[49] - r[49] <= 1
 mccormick3[50]: x[50] + u[50] - r[50] <= 1
 mccormick3[51]: x[51] + u[51] - r[51] <= 1
 mccormick3[52]: x[52] + u[52] - r[52] <= 1
 mccormick3[53]: x[53] + u[53] - r[53] <= 1
 mccormick3[54]: x[54] + u[54] - r[54] <= 1
 mccormick3[55]: x[55] + u[55] - r[55] <= 1
 mccormick3[56]: x[56] + u[56] - r[56] <= 1
 mccormick3[57]: x[57] + u[57] - r[57] <= 1
 mccormick3[58]: x[58] + u[58] - r[58] <= 1
 mccormick3[59]: x[59] + u[59] - r[59] <= 1
 mccormick3[60]: x[60] + u[60] - r[60] <= 1
 mccormick3[61]: x[61] + u[61] - r[61] <= 1
 mccormick3[62]: x[62] + u[62] - r[62] <= 1
 mccormick3[63]: x[63] + u[63] - r[63] <= 1
 mccormick3[64]: x[64] + u[64] - r[64] <= 1
 mccormick3[65]: x[65] + u[65] - r[65] <= 1
 mccormick3[66]: x[66] + u[66] - r[66] <= 1
 mccormick3[67]: x[67] + u[67] - r[67] <= 1
 mccormick3[68]: x[68] + u[68] - r[68] <= 1
 mccormick3[69]: x[69] + u[69] - r[69] <= 1
 mccormick3[70]: x[70] + u[70] - r[70] <= 1
 mccormick3[71]: x[71] + u[71] - r[71] <= 1
 mccormick3[72]: x[72] + u[72] - r[72] <= 1
 mccormick3[73]: x[73] + u[73] - r[73] <= 1
 mccormick3[74]: x[74] + u[74] - r[74] <= 1
 mccormick3[75]: x[75] + u[75] - r[75] <= 1
 mccormick3[76]: x[76] + u[76] - r[76] <= 1
 mccormick3[77]: x[77] + u[77] - r[77] <= 1
 mccormick3[78]: x[78] + u[78] - r[78] <= 1
 mccormick3[79]: x[79] + u[79] - r[79] <= 1
 mccormick3[80]: x[80] + u[80] - r[80] <= 1
 mccormick3[81]: x[81] + u[81] - r[81] <= 1
 mccormick3[82]: x[82] + u[82] - r[82] <= 1
 mccormick3[83]: x[83] + u[83] - r[83] <= 1
 mccormick3[84]: x[84] + u[84] - r[84] <= 1
 mccormick3[85]: x[85] + u[85] - r[85] <= 1
 mccormick3[86]: x[86] + u[86] - r[86] <= 1
 mccormick3[87]: x[87] + u[87] - r[87] <= 1
 mccormick3[88]: x[88] + u[88] - r[88] <= 1
 mccormick3[89]: x[89] + u[89] - r[89] <= 1
 mccormick3[90]: x[90] + u[90] - r[90] <= 1
 mccormick3[91]: x[91] + u[91] - r[91] <= 1
 mccormick3[92]: x[92] + u[92] - r[92] <= 1
 mccormick3[93]: x[93] + u[93] - r[93] <= 1
 mccormick3[94]: x[94] + u[94] - r[94] <= 1
 mccormick3[95]: x[95] + u[95] - r[95] <= 1
 mccormick3[96]: x[96] + u[96] - r[96] <= 1
 mccormick3[97]: x[97] + u[97] - r[97] <= 1
 mccormick3[98]: x[98] + u[98] - r[98] <= 1
 mccormick3[99]: x[99] + u[99] - r[99] <= 1
 mccormick3[100]: x[100] + u[100] - r[100] <= 1
 mccormick3[101]: x[101] + u[101] - r[101] <= 1
 mccormick3[102]: x[102] + u[102] - r[102] <= 1
 mccormick3[103]: x[103] + u[103] - r[103] <= 1
 mccormick3[104]: x[104] + u[104] - r[104] <= 1
 mccormick3[105]: x[105] + u[105] - r[105] <= 1
 mccormick3[106]: x[106] + u[106] - r[106] <= 1
 mccormick3[107]: x[107] + u[107] - r[107] <= 1
 mccormick3[108]: x[108] + u[108] - r[108] <= 1
 mccormick3[109]: x[109] + u[109] - r[109] <= 1
 mccormick3[110]: x[110] + u[110] - r[110] <= 1
 mccormick3[111]: x[111] + u[111] - r[111] <= 1
 mccormick3[112]: x[112] + u[112] - r[112] <= 1
 mccormick3[113]: x[113] + u[113] - r[113] <= 1
 mccormick3[114]: x[114] + u[114] - r[114] <= 1
 mccormick3[115]: x[115] + u[115] - r[115] <= 1
 mccormick3[116]: x[116] + u[116] - r[116] <= 1
 mccormick3[117]: x[117] + u[117] - r[117] <= 1
 mccormick3[118]: x[118] + u[118] - r[118] <= 1
 mccormick3[119]: x[119] + u[119] - r[119] <= 1
 mccormick3[120]: x[120] + u[120] - r[120] <= 1
 mccormick3[121]: x[121] + u[121] - r[121] <= 1
 mccormick3[122]: x[122] + u[122] - r[122] <= 1
 mccormick3[123]: x[123] + u[123] - r[123] <= 1
 mccormick3[124]: x[124] + u[124] - r[124] <= 1
 mccormick3[125]: x[125] + u[125] - r[125] <= 1
 mccormick3[126]: x[126] + u[126] - r[126] <= 1
 mccormick3[127]: x[127] + u[127] - r[127] <= 1
 mccormick3[128]: x[128] + u[128] - r[128] <= 1
 mccormick3[129]: x[129] + u[129] - r[129] <= 1
Bounds
Binaries
 x[0] x[1] x[2] x[3] x[4] x[5] x[6] x[7] x[8] x[9] x[10] x[11] x[12] x[13]
 x[14] x[15] x[16] x[17] x[18] x[19] x[20] x[21] x[22] x[23] x[24] x[25]
 x[26] x[27] x[28] x[29] x[30] x[31] x[32] x[33] x[34] x[35] x[36] x[37]
 x[38] x[39] x[40] x[41] x[42] x[43] x[44] x[45] x[46] x[47] x[48] x[49]
 x[50] x[51] x[52] x[53] x[54] x[55] x[56] x[57] x[58] x[59] x[60] x[61]
 x[62] x[63] x[64] x[65] x[66] x[67] x[68] x[69] x[70] x[71] x[72] x[73]
 x[74] x[75] x[76] x[77] x[78] x[79] x[80] x[81] x[82] x[83] x[84] x[85]
 x[86] x[87] x[88] x[89] x[90] x[91] x[92] x[93] x[94] x[95] x[96] x[97]
 x[98] x[99] x[100] x[101] x[102] x[103] x[104] x[105] x[106] x[107] x[108]
 x[109] x[110] x[111] x[112] x[113] x[114] x[115] x[116] x[117] x[118]
 x[119] x[120] x[121] x[122] x[123] x[124] x[125] x[126] x[127] x[128]
 x[129] u[0] u[1] u[2] u[3] u[4] u[5] u[6] u[7] u[8] u[9] u[10] u[11] u[12]
 u[13] u[14] u[15] u[16] u[17] u[18] u[19] u[20] u[21] u[22] u[23] u[24]
 u[25] u[26] u[27] u[28] u[29] u[30] u[31] u[32] u[33] u[34] u[35] u[36]
 u[37] u[38] u[39] u[40] u[41] u[42] u[43] u[44] u[45] u[46] u[47] u[48]
 u[49] u[50] u[51] u[52] u[53] u[54] u[55] u[56] u[57] u[58] u[59] u[60]
 u[61] u[62] u[63] u[64] u[65] u[66] u[67] u[68] u[69] u[70] u[71] u[72]
 u[73] u[74] u[75] u[76] u[77] u[78] u[79] u[80] u[81] u[82] u[83] u[84]
 u[85] u[86] u[87] u[88] u[89] u[90] u[91] u[92] u[93] u[94] u[95] u[96]
 u[97] u[98] u[99] u[100] u[101] u[102] u[103] u[104] u[105] u[106] u[107]
 u[108] u[109] u[110] u[111] u[112] u[113] u[114] u[115] u[116] u[117]
 u[118] u[119] u[120] u[121] u[122] u[123] u[124] u[125] u[126] u[127]
 u[128] u[129] r[0] r[1] r[2] r[3] r[4] r[5] r[6] r[7] r[8] r[9] r[10]
 r[11] r[12] r[13] r[14] r[15] r[16] r[17] r[18] r[19] r[20] r[21] r[22]
 r[23] r[24] r[25] r[26] r[27] r[28] r[29] r[30] r[31] r[32] r[33] r[34]
 r[35] r[36] r[37] r[38] r[39] r[40] r[41] r[42] r[43] r[44] r[45] r[46]
 r[47] r[48] r[49] r[50] r[51] r[52] r[53] r[54] r[55] r[56] r[57] r[58]
 r[59] r[60] r[61] r[62] r[63] r[64] r[65] r[66] r[67] r[68] r[69] r[70]
 r[71] r[72] r[73] r[74] r[75] r[76] r[77] r[78] r[79] r[80] r[81] r[82]
 r[83] r[84] r[85] r[86] r[87] r[88] r[89] r[90] r[91] r[92] r[93] r[94]
 r[95] r[96] r[97] r[98] r[99] r[100] r[101] r[102] r[103] r[104] r[105]
 r[106] r[107] r[108] r[109] r[110] r[111] r[112] r[113] r[114] r[115]
 r[116] r[117] r[118] r[119] r[120] r[121] r[122] r[123] r[124] r[125]
 r[126] r[127] r[128] r[129]
End
