instances/knapsack/discrete_knapsack_uncertainty/knapsack_130_17.kp
85969
130
692

89 8.9 18
70 7.0 42
8 0.8 24
29 2.9 60
34 3.4 49
95 9.5 89
43 4.3 81
85 8.5 91
79 7.9 70
4 0.4 90
89 8.9 87
81 8.1 63
50 5.0 15
98 9.8 50
30 3.0 59
26 2.6 60
19 1.9 34
26 2.6 14
43 4.3 74
12 1.2 9
35 3.5 13
81 8.1 39
86 8.6 92
52 5.2 16
30 3.0 97
90 9.0 42
48 4.8 88
89 8.9 35
11 1.1 70
77 7.7 88
99 9.9 89
49 4.9 16
85 8.5 88
63 6.3 19
54 5.4 3
79 7.9 9
22 2.2 65
2 0.2 91
90 9.0 22
36 3.6 23
33 3.3 88
19 1.9 69
48 4.8 37
79 7.9 67
57 5.7 50
96 9.6 63
95 9.5 60
35 3.5 76
61 6.1 100
66 6.6 73
68 6.8 7
86 8.6 6
91 9.1 19
70 7.0 33
10 1.0 48
33 3.3 42
83 8.3 10
24 2.4 24
42 4.2 32
24 2.4 95
22 2.2 48
48 4.8 6
9 0.9 61
56 5.6 77
9 0.9 34
82 8.2 41
90 9.0 25
96 9.6 73
98 9.8 88
71 7.1 21
67 6.7 41
43 4.3 3
44 4.4 5
85 8.5 5
81 8.1 54
14 1.4 50
44 4.4 82
97 9.7 97
30 3.0 80
80 8.0 43
63 6.3 35
55 5.5 82
64 6.4 33
7 0.7 78
55 5.5 61
71 7.1 88
29 2.9 50
14 1.4 71
96 9.6 64
57 5.7 70
90 9.0 62
90 9.0 57
94 9.4 33
69 6.9 16
94 9.4 12
79 7.9 98
79 7.9 25
82 8.2 64
6 0.6 44
66 6.6 52
23 2.3 28
78 7.8 25
88 8.8 18
18 1.8 73
39 3.9 59
36 3.6 71
49 4.9 90
36 3.6 100
32 3.2 50
55 5.5 8
84 8.4 89
37 3.7 46
11 1.1 81
35 3.5 83
79 7.9 2
72 7.2 53
85 8.5 47
39 3.9 69
23 2.3 90
74 7.4 51
97 9.7 89
30 3.0 78
1 0.1 42
16 1.6 23
11 1.1 11
92 9.2 20
69 6.9 88
73 7.3 30
88 8.8 7
65 6.5 40

87186
596

[0.07414615420854834 3.1851573743458514 0.41422974488734493 3.564107722833874 3.0035745650947034 1.7250623492764805 0.08811923852750633 1.6702853946585279 0.9901383167490742 4.009524647265231 3.6425523382898652 3.3944190960887 3.5338263262633762 2.146841373228768 0.16851569966912672 2.1206819900245457 0.08320670786639231 3.9423908161714105 4.231385992215133 0.31871505636588143 3.4519577087349256 2.3148737786325544 0.5568879379663818 1.2032053100472926 4.172526516054073 2.5163217667805498 2.3268173052481886 1.8673223692620255 2.05219366555448 0.5092314697321775 2.767830805289915 1.9363023515775915 3.471540661282395 2.275134943569521 1.4010079232061272 1.7936738386911026 3.461392883785948 0.1590795699191072 0.8195296887197809 1.1279676514642152 4.178495811442051 1.7804327490123173 1.7060329655039856 3.053323203857436 2.1112477684010247 0.01406221288425379 4.1362556972165665 2.683995306517752 1.6149404878419742 2.2209374661729533 3.696932839785951 2.2757070534031563 0.9556989353610492 1.9444526545483032 0.9617493862699725 4.147827898957316 2.450458493309201 0.7299445065524708 3.099025320300205 3.376429416412091 2.9982742296966607 0.6077677606187794 1.2008824117488401 4.272605282581338 3.018958150050901 1.4653227710650603 4.492539740280599 2.0137694980225076 4.29784406375831 3.47446822266053 2.5561565466927894 0.31291893123201747 0.091609193150701 0.5354005619860495 3.426685325351655 3.474306050925187 3.8009005420109587 1.1225243475467626 1.9496603679155364 3.658846086843463 1.584604211928061 2.1161507599157456 3.247153571100353 1.8019195591297315 1.0750366709165005 0.9505688540719597 3.4723746215678073 4.185612019545488 0.6790359645737859 0.8230283185547588 0.8706260679660658 1.9802131787364623 1.3031909931127899 0.9446422710679412 0.0388138955334213 1.0287752912048784 1.6850491830715868 0.6581685819374673 3.515469230076515 1.003576404235288 3.3820650155428646 3.790046259517239 3.9536971366048057 0.5303805181821724 4.337860807350445 1.9484456212886554 1.2347305410210574 0.27315317555835056 3.9285810476318423 2.7963362620881886 0.8294338045044378 1.539638840738472 0.9537835866045785 4.09589727505103 3.3135308721858556 3.194167931618575 2.599269954531826 3.4484344024740152 3.728201962123435 1.289822317878772 0.2839666396043796 0.04714529733800729 4.2136176242279095 3.9990169757805942 3.3151635659879357 4.458831370586242 2.9177190167956453 4.09048434769953 0.9266154097541855 1.3943959122834217]

[4 52 26 91 4 42 77 68 65 58 28 31 8 60 29 65 89 20 17 66 25 16 16 39 1 72 30 84 22 43 30 80 20 21 100 93 4 5 44 63 51 22 38 26 71 95 66 50 31 100 55 48 73 12 57 76 5 31 60 34 49 59 84 43 12 40 21 67 48 94 74 62 82 99 12 49 99 31 5 43 66 26 83 38 78 70 48 36 18 11 61 29 21 60 64 53 37 25 52 100 17 24 22 48 61 46 51 3 79 77 43 39 93 45 93 15 43 41 37 37 4 81 72 99 57 11 72 96 23 71]
